%nprocshared=64
%mem=64GB
%chk=1_test_opt_freq_from_IRC_re.chk
# opt=(calcfc,tight) freq cam-b3lyp/gen nosymm pseudo=read scf=xqc

1_test_opt_freq_from_IRC_re

0 1
 C                 -1.29975200    1.37219300    0.34725300
 C                 -0.29063500    0.89566300    1.26349200
 O                 -0.88044300   -0.02328800    0.27318500
 C                 -0.93931400    2.27807400   -0.78900100
 H                 -0.55233900    0.68966200    2.29554600
 H                  0.74021300    1.18076500    1.08840600
 H                 -1.69465900    2.27152400   -1.58189200
 H                  0.02914800    1.99205400   -1.21021900
 H                 -0.82716300    3.28255600   -0.36786500
 H                 -2.30935600    1.48276300    0.74044200
 Br                 0.36357100    3.76380600    2.21705200
 N                  0.09730000   -2.93086400   -1.29973000
 C                 -1.37478300   -2.64938900   -1.01172500
 C                 -2.18776200   -2.02024500   -2.12796800
 H                 -1.39227200   -1.96274300   -0.16709000
 H                 -1.79318200   -3.61587300   -0.71977800
 H                 -3.22729100   -2.01232600   -1.79118400
 H                 -1.90323200   -0.98049200   -2.28897000
 H                 -2.16007700   -2.56522600   -3.07387300
 C                  0.18709000   -3.97293400   -2.38995700
 C                  1.57823700   -4.51491300   -2.68205700
 H                 -0.23621500   -3.52007400   -3.28366600
 H                 -0.47886700   -4.78399500   -2.08624800
 H                  1.52031100   -5.10792500   -3.59774600
 H                  2.31244800   -3.72532300   -2.85176400
 H                  1.95019200   -5.17283000   -1.89585000
 C                  0.69839800   -3.51500300   -0.03006600
 C                  0.68809300   -2.62029700    1.19806600
 H                  1.72514400   -3.77936600   -0.27923900
 H                  0.14888700   -4.44109400    0.15878400
 H                  1.19296400   -3.17004800    1.99637100
 H                  1.23005600   -1.68728500    1.04451100
 H                 -0.31296700   -2.37056000    1.54618500
 C                  0.86032100   -1.65081400   -1.65169800
 C                  0.84473600   -1.22030400   -3.11020500
 H                  1.89091000   -1.82430600   -1.33730600
 H                  0.42347100   -0.87468100   -1.01511200
 H                  1.37160200   -0.26392200   -3.15625500
 H                  1.36841400   -1.90973300   -3.77524500
 H                 -0.15672600   -1.04917400   -3.50137300

C H O Br N 0
6-31G(d,p)
****



