%nprocshared=64
%mem=64GB
%chk=4_test_opt_freq_from_IRC_re.chk
# opt=(calcfc,tight) freq cam-b3lyp/gen nosymm pseudo=read scf=xqc

4_test_opt_freq_from_IRC_re

0 1
 C                  1.20511000    1.31641600    0.78965600
 C                  1.73379000    2.19192300   -0.34681200
 O                  0.03606900    0.61027600    0.37677600
 C                  0.99003600    2.07875600    2.08929800
 H                  1.67663000    1.65964200   -1.29440100
 H                  1.20928800    3.13751400   -0.41755800
 H                  0.66603800    1.39108700    2.87557500
 H                  0.22332200    2.83997600    1.94423900
 H                  1.92059200    2.55430200    2.40908400
 H                  1.94121500    0.52262700    0.95769600
 Br                 3.64169100    2.60585600   -0.08324300
 C                 -1.12049000    1.36630900   -0.04664200
 O                 -2.07197600    0.60186400   -0.31028100
 O                 -1.00601600    2.58605400   -0.10184500
 N                 -2.13474000   -2.84729300   -0.05555800
 C                 -3.35573300   -1.95024700    0.16785400
 C                 -4.42796100   -1.95625100   -0.90990600
 H                 -2.95181700   -0.93780700    0.28403300
 H                 -3.79334500   -2.30005500    1.10594300
 H                 -5.15839500   -1.19957400   -0.61363400
 H                 -4.05445900   -1.66344400   -1.88916600
 H                 -4.96028200   -2.90636500   -0.99743800
 C                 -2.58229800   -4.16133000   -0.64458600
 C                 -1.51784300   -5.23623200   -0.79655600
 H                 -3.01670100   -3.93394800   -1.61587900
 H                 -3.38972700   -4.51692000    0.00035500
 H                 -1.99758400   -6.11332600   -1.23763600
 H                 -0.71179500   -4.93816400   -1.46884500
 H                 -1.08540700   -5.54858600    0.15510800
 C                 -1.50907200   -3.10877700    1.30502800
 C                 -1.28515700   -1.88278400    2.17780400
 H                 -0.55928300   -3.60712200    1.10989000
 H                 -2.16796900   -3.82409400    1.80525000
 H                 -0.69065100   -2.20432300    3.03716500
 H                 -0.74623900   -1.08054600    1.66758500
 H                 -2.21985100   -1.47181700    2.56001200
 C                 -1.06535100   -2.18161400   -0.91668400
 C                 -1.48668600   -1.73111400   -2.30136800
 H                 -0.25246700   -2.90767100   -0.96589600
 H                 -0.73005500   -1.30009400   -0.37109000
 H                 -0.57325600   -1.43888900   -2.82595600
 H                 -1.97105900   -2.50503300   -2.90312400
 H                 -2.10751500   -0.83847600   -2.22794800

C H O Br N 0
6-31G(d,p)
****



