%nprocshared=64
%mem=64GB
%chk=IRC_5_re.chk
# irc=(calcfc,maxpoints=80,recalc=3) cam-b3lyp/gen nosymm pseudo=read
scf=xqc

IRC_5_re

0 1
 C                  0.48780400    0.05793100    0.04712100
 C                  0.58673500    1.15226700   -0.99914200
 O                 -0.68954500   -0.73346500   -0.22471900
 C                  0.42628700    0.61532000    1.45595800
 H                  0.72496200    0.90384200   -2.03737400
 H                  0.56874900    2.19227000   -0.72867100
 H                  0.31543700   -0.19213900    2.18393100
 H                 -0.42296300    1.29734100    1.55442700
 H                  1.35000000    1.15840500    1.66265200
 H                  1.32817200   -0.62248300   -0.06654900
 Br                 3.04312000    1.34250800   -0.85915500
 C                 -1.68377700   -0.00073200   -0.85217400
 O                 -2.76593800   -0.56535300   -1.02422400
 O                 -1.31775500    1.15914800   -1.19294700
 N                 -2.79533200   -4.17321000   -0.78827200
 C                 -3.99981400   -3.25369500   -0.57017000
 C                 -5.06634900   -3.23586800   -1.65409400
 H                 -3.58281700   -2.25001700   -0.44168400
 H                 -4.45181500   -3.59423200    0.36385000
 H                 -5.78155900   -2.46282500   -1.36313700
 H                 -4.68347000   -2.95603900   -2.63363100
 H                 -5.61818400   -4.17442200   -1.73939700
 C                 -3.25459000   -5.46494100   -1.42042800
 C                 -2.20414300   -6.55272500   -1.57756000
 H                 -3.66612400   -5.20567800   -2.39365600
 H                 -4.07982600   -5.82195900   -0.79961800
 H                 -2.68921200   -7.40974400   -2.05083900
 H                 -1.37932700   -6.25295600   -2.22597700
 H                 -1.79734300   -6.89717700   -0.62581700
 C                 -2.19984600   -4.48605200    0.57679400
 C                 -1.98177500   -3.29565100    1.49834700
 H                 -1.25182800   -4.98839000    0.38419200
 H                 -2.87690500   -5.20964100    1.03863900
 H                 -1.41577900   -3.65708900    2.36076300
 H                 -1.41419000   -2.48613400    1.03585000
 H                 -2.91910800   -2.88251900    1.87180500
 C                 -1.70258900   -3.50493400   -1.61380900
 C                 -2.09509400   -3.00471300   -2.99074200
 H                 -0.90192900   -4.24267300   -1.67847200
 H                 -1.34656700   -2.66035000   -1.02669500
 H                 -1.17183500   -2.69266500   -3.48567000
 H                 -2.55971900   -3.76326500   -3.62592900
 H                 -2.72758500   -2.12066500   -2.91480300

C H O Br N 0
6-31G(d,p)
****



