%nprocshared=64
%mem=64GB
%chk=4_test_opt_freq_from_IRC.chk
# opt=(calcall,tight,cartesian) freq ucam-b3lyp/gen nosymm
scf=(qc,maxcycle=1024,vshift=100) pseudo=read

4_test_opt_freq_from_IRC

0 4
 Li              -1   -1.57353400   -6.19113200   -3.27724800
 N               -1   -1.24313500   -4.75916400   -2.09463000
 C                0   -1.91701200   -5.14230100   -0.97123100
 Cl               0   -2.65284800   -6.72072900   -0.95940700
 N               -1    1.34373600    1.46760900   -2.29586900
 C                0    2.25706800    0.46640400   -2.23396000
 Cl               0    3.84690600    0.61398100   -2.91521800
 N               -1   -4.29383800    0.88349300    1.25132200
 C                0   -4.51534500    0.81844800   -0.08116300
 Cl               0   -5.94027700    1.46590200   -0.82255200
 N                0   -1.18213800   -3.10667200   -0.58403400
 C                0   -1.88862800   -4.14240800   -0.04325900
 Cl               0   -2.57792200   -4.09553000    1.51995900
 N                0   -2.55582600   -0.16082100    0.24486000
 C                0   -3.46968600    0.18441500   -0.70525800
 Cl               0   -3.24733300   -0.18514500   -2.37972700
 N                0    0.45954300   -0.30437200   -1.19663900
 C                0    1.73463300   -0.61089400   -1.56229300
 Cl               0    2.48312800   -2.11772800   -1.18707700
 C                0   -0.82388600   -3.51959500   -1.80039300
 H                0   -0.24941900   -2.90425400   -2.47671900
 C                0   -3.11816900    0.28563700    1.39677000
 H                0   -2.63026400    0.13766300    2.35078100
 C                0    0.28671200    0.94866100   -1.66673700
 H                0   -0.65330500    1.46951800   -1.54382500
 Co               0   -0.82456100   -1.19714400    0.16867200
 C                0    1.07342300   -0.44782400    2.23690900
 C                0    0.48750900    0.74341900    2.99981100
 O                0   -0.01378300   -1.20850500    1.85311500
 C                0    2.02721800   -1.27502800    3.09248000
 H                0   -0.24367000    1.27674300    2.39594500
 H                0    0.03996600    0.43668700    3.94402400
 H                0    2.39238800   -2.11852700    2.50240400
 H                0    1.48891700   -1.67450400    3.95752600
 H                0    2.88271100   -0.69102200    3.44379600
 H                0    1.63535900   -0.04912800    1.37094700
 N                0    2.74482600    4.41813900   -0.16407700
 C                0    2.72142100    5.22246200    1.12608500
 C                0    4.02440800    5.86542800    1.58024500
 H                0    2.33815900    4.54555600    1.89072000
 H                0    1.97824700    6.00750900    0.97128300
 H                0    3.83141200    6.31492800    2.55749200
 H                0    4.84084000    5.15611800    1.70507300
 H                0    4.35317200    6.66694600    0.91685500
 C                0    3.62390000    5.10899700   -1.18176900
 C                0    3.66764100    4.47206400   -2.56046700
 H                0    4.62511800    5.14507800   -0.75725400
 H                0    3.25383400    6.13600200   -1.24126200
 H                0    4.35371200    5.06544600   -3.17026000
 H                0    4.04151800    3.44775400   -2.54201500
 H                0    2.69965900    4.46579200   -3.06120000
 C                0    1.32219800    4.37255900   -0.72547200
 C                0    0.23902400    3.94819000    0.25093200
 H                0    1.34723300    3.66860700   -1.55960600
 H                0    1.12762100    5.38101300   -1.09983000
 H                0   -0.70392600    3.94845800   -0.30113100
 H                0    0.38464400    2.93402600    0.62250500
 H                0    0.12022700    4.62342900    1.09923600
 C                0    3.18174100    2.97868900    0.07185400
 C                0    4.60268800    2.75280100    0.55168200
 H                0    2.99876100    2.46243300   -0.86646000
 H                0    2.49056400    2.57708200    0.81057300
 H                0    4.76813700    1.67329100    0.52308100
 H                0    5.36168500    3.20807500   -0.08853200
 H                0    4.75591700    3.06988600    1.58392200
 Br               0    1.84770400    2.11894000    3.50219100

Co 0
LanL2DZ
****
C H O Br Li Cl N 0
6-31G(d,p)
****

Co 0
LanL2DZ




