%nprocshared=64
%mem=64GB
%chk=9_test_opt_freq_from_IRC.chk
# opt=(calcall,tight,cartesian) freq ucam-b3lyp/gen nosymm
scf=(qc,maxcycle=1024,vshift=100) pseudo=read

9_test_opt_freq_from_IRC

0 4
 Li              -1   -1.21493000   -6.59159400   -3.55333800
 N               -1   -0.88453100   -5.15962600   -2.37072000
 C                0   -1.71702200   -5.44849200   -1.32729000
 Cl               0   -2.59158000   -6.94932900   -1.36712100
 N               -1    1.70234000    1.06714700   -2.57195900
 C                0    2.69322900    0.22557100   -2.18260300
 Cl               0    4.35684400    0.53093500   -2.52642600
 N               -1   -3.93523400    0.48303100    0.97523200
 C                0   -4.17454200    0.47723200   -0.35832200
 Cl               0   -5.58002800    1.20001700   -1.05504200
 N                0   -0.84961000   -3.47599800   -0.90056400
 C                0   -1.70661300   -4.42891100   -0.42248700
 Cl               0   -2.55977300   -4.26917200    1.04789900
 N                0   -2.24112400   -0.56444000   -0.08624800
 C                0   -3.15620500   -0.16167500   -1.01649400
 Cl               0   -2.95393200   -0.48022500   -2.70124700
 N                0    0.80772500   -0.67364900   -1.44538500
 C                0    2.16199400   -0.83808600   -1.50035700
 Cl               0    2.94625500   -2.20776800   -0.80750400
 C                0   -0.38893900   -3.95667900   -2.05987000
 H                0    0.31327500   -3.41371600   -2.67592900
 C                0   -2.77830100   -0.14692400    1.09125600
 H                0   -2.28743400   -0.33592200    2.03604600
 C                0    0.60052600    0.48809200   -2.11202700
 H                0   -0.39477800    0.88441600   -2.26109300
 Co               0   -0.54449100   -1.56062900   -0.26668500
 C                0    2.78159700    0.24932300    2.76740400
 C                0    1.92389900    0.10305600    4.02339500
 O                0    1.84614700   -0.20764200    1.73467300
 C                0    4.02377200   -0.60906100    2.71755600
 H                0    1.45216600    1.05242900    4.28719200
 H                0    2.45249000   -0.32626400    4.87374200
 H                0    4.47842100   -0.56781500    1.72610300
 H                0    3.79829600   -1.65347600    2.95496600
 H                0    4.74755900   -0.23504900    3.44655600
 H                0    2.97620400    1.30700900    2.57904400
 N                0    0.59133000    4.52677700   -0.25834600
 C                0    0.58549700    5.59872700    0.82667700
 C                0    1.42676100    6.84222200    0.58261900
 H                0    0.90705700    5.09707900    1.74612000
 H                0   -0.46008000    5.89643700    0.93143500
 H                0    1.35136600    7.44635900    1.49011400
 H                0    2.48241400    6.62607200    0.43125300
 H                0    1.06573700    7.45364600   -0.24703900
 C                0    0.56009800    5.17868700   -1.62032300
 C                0    0.33880600    4.25116300   -2.80531200
 H                0    1.50525300    5.70722000   -1.72992100
 H                0   -0.23322300    5.92923000   -1.57104800
 H                0    0.43873500    4.85435600   -3.71152400
 H                0    1.06352600    3.43563700   -2.86773900
 H                0   -0.66505800    3.82248300   -2.81517700
 C                0   -0.67215200    3.68815500   -0.09635800
 C                0   -1.01626800    3.26213800    1.32234400
 H                0   -0.52929400    2.81329100   -0.72935200
 H                0   -1.48427600    4.28422300   -0.52064300
 H                0   -1.80900300    2.51212100    1.25505500
 H                0   -0.16886300    2.83872700    1.86553400
 H                0   -1.39821000    4.08949700    1.92160700
 C                0    1.77779900    3.57830500   -0.12533700
 C                0    3.16200300    4.19836900   -0.15442400
 H                0    1.66344900    2.84803700   -0.92523800
 H                0    1.65631900    3.09237300    0.84343100
 H                0    3.86854000    3.37007000   -0.25149400
 H                0    3.33792300    4.86363600   -1.00343000
 H                0    3.38733900    4.70127600    0.78678400
 Br               0    2.16210500    3.61635100    3.41920000
 C                0    0.87982100   -0.89543200    2.30062300
 O                0    0.89965000   -0.84355100    3.61568800
 O                0    0.03229000   -1.53459300    1.68321300

Co 0
LanL2DZ
****
C H O Br Li Cl N 0
6-31G(d,p)
****

Co 0
LanL2DZ



