%nprocshared=64
%mem=64GB
%chk=Co_cat_opt_freq_qua.chk
# opt=(calcall,tight,cartesian) freq cam-b3lyp/gen nosymm
scf=(qc,maxcycle=1024,vshift=100) pseudo=read

Co_cat_opt_freq_qua

0 4
 Li              -1   -0.65875900   -5.04605500   -3.46452200
 N               -1   -0.32836000   -3.61408700   -2.28190400
 C                0   -0.82073400   -4.01655200   -1.07264600
 Cl               0   -1.43942100   -5.62748800   -0.93068100
 N               -1    2.25851100    2.61268600   -2.48314300
 C                0    3.21824100    2.00538100   -1.73546900
 Cl               0    4.88461200    2.42642300   -1.84714300
 N               -1   -3.37906300    2.02857000    1.06404800
 C                0   -3.81282500    1.62093700   -0.15640900
 Cl               0   -5.37219100    2.01794200   -0.76874700
 N                0   -0.16803600   -1.93342600   -0.82746900
 C                0   -0.72864800   -2.99670800   -0.17327500
 Cl               0   -1.18967700   -2.93674000    1.46959100
 N                0   -1.76616200    0.81528700    0.07790700
 C                0   -2.84149600    0.88291300   -0.76964500
 Cl               0   -2.80288900    0.14327200   -2.32799600
 N                0    1.30663900    1.05375300   -1.17124800
 C                0    2.65405400    1.05655800   -0.92892000
 Cl               0    3.35286800   -0.01219700    0.22717000
 C                0    0.05241000   -2.35368200   -2.07834800
 H                0    0.49253500   -1.72364000   -2.83831800
 C                0   -2.16601900    1.53502400    1.16405600
 H                0   -1.52526300    1.67830600    2.02432300
 C                0    1.14243200    2.02191000   -2.11973300
 H                0    0.16604300    2.27585700   -2.51198400
 Co               0   -0.09015400    0.01119800   -0.37547800

Co 0
LanL2DZ
****
C H Li Cl N 0
6-31G(d,p)
****

Co 0
LanL2DZ



