%nprocshared=64
%mem=64GB
%chk=IRC_8.chk
# irc=(calcfc,maxpoints=120,recalc=3) ucam-b3lyp/gen nosymm
scf=(qc,maxcycle=1024,vshift=100) pseudo=read

IRC_8

0 4
 Li              -1   -0.65875900   -5.04605500   -3.46452200
 N               -1   -0.32836000   -3.61408700   -2.28190400
 C                0   -1.17519600   -3.90250500   -1.25053600
 Cl               0   -2.05540300   -5.40129800   -1.30786300
 N               -1    2.25851100    2.61268600   -2.48314300
 C                0    3.25396400    1.78561500   -2.07330600
 Cl               0    4.92045800    2.12424700   -2.38019000
 N               -1   -3.37906300    2.02857000    1.06404800
 C                0   -3.59100100    2.07157500   -0.27290600
 Cl               0   -4.97110400    2.84268300   -0.97343200
 N                0   -0.30489100   -1.93671600   -0.80646900
 C                0   -1.17207300   -2.88603300   -0.34196400
 Cl               0   -2.04471500   -2.72950000    1.11681600
 N                0   -1.68510500    0.97861500   -0.00059400
 C                0   -2.57231900    1.43254800   -0.93264700
 Cl               0   -2.36241400    1.15308900   -2.62448800
 N                0    1.36862500    0.85144700   -1.37717500
 C                0    2.72560400    0.71085500   -1.40493200
 Cl               0    3.52382000   -0.63992100   -0.69597500
 C                0    0.16871200   -2.41461300   -1.95991400
 H                0    0.88143000   -1.87251900   -2.56448900
 C                0   -2.23752400    1.36477900    1.17884500
 H                0   -1.76709400    1.13125600    2.12445600
 C                0    1.15655800    2.00958000   -2.04532300
 H                0    0.15754600    2.38623900   -2.21791000
 Co               0    0.03016600   -0.03560000   -0.13925800
 C                0    2.96737300    2.26950000    2.52659000
 C                0    2.07742900    2.77563000    3.64338000
 O                0    2.13985900    1.46431500    1.66608200
 C                0    4.15865400    1.48024100    3.03356400
 H                0    1.13126000    3.24022600    3.42976500
 H                0    2.35618200    2.66273500    4.67748500
 H                0    4.71879000    1.07089400    2.19096500
 H                0    3.83149000    0.66002200    3.67646500
 H                0    4.81188200    2.14262200    3.60649900
 H                0    3.30227700    3.09145700    1.90316100
 N                0    1.14394900    5.98992300   -0.20510100
 C                0    1.13653300    6.96120400    0.97254300
 C                0    1.97469600    8.22366200    0.83848100
 H                0    1.46758100    6.38952400    1.84279300
 H                0    0.09091800    7.24124400    1.11754500
 H                0    1.91851800    8.73643100    1.80172600
 H                0    3.02720300    8.02343400    0.64443300
 H                0    1.59729100    8.91133900    0.07955100
 C                0    1.19025500    6.75277200   -1.51043400
 C                0    1.04658700    5.92004200   -2.77634800
 H                0    2.13712600    7.28786000   -1.51854400
 H                0    0.39262600    7.49740600   -1.44715900
 H                0    1.27353300    6.57424100   -3.62197700
 H                0    1.72824400    5.06626300   -2.82307600
 H                0    0.02878500    5.55373200   -2.92032900
 C                0   -0.15741500    5.19751900   -0.17136500
 C                0   -0.43893500    4.42350000    1.10366400
 H                0   -0.11632100    4.50637500   -1.01097600
 H                0   -0.94670500    5.92772200   -0.36611800
 H                0   -1.44868200    4.01156000    1.02668100
 H                0    0.23833600    3.57681200    1.21857000
 H                0   -0.39820700    5.04094200    2.00239700
 C                0    2.29393900    5.00043100   -0.09550900
 C                0    3.69956300    5.57157500   -0.12023200
 H                0    2.15809500    4.28006900   -0.90176600
 H                0    2.14122500    4.49783100    0.85641900
 H                0    4.37836000    4.71980800   -0.21308300
 H                0    3.89690900    6.21900400   -0.97738700
 H                0    3.94962200    6.08413700    0.80934800
 Br               0    2.95311000    5.08776200    3.71595300
 C                0    1.24269900    0.75456500    2.38971300
 O                0    1.18239400    1.03707900    3.61216400
 O                0    0.54711600   -0.08531200    1.77111000

Co 0
LanL2DZ
****
C H O Br Li Cl N 0
6-31G(d,p)
****

Co 0
LanL2DZ



