%nprocshared=64
%mem=64GB
%chk=Zn_PC_TEABr_opt_freq3.chk
# opt=(calcall,tight,cartesian) freq cam-b3lyp/gen nosymm
scf=(qc,maxcycle=1024,vshift=100) pseudo=read

Zn_PC_TEABr_opt_freq3

0 1
 Li              -1   -0.65617400   -5.03839400   -3.45744000
 N               -1   -0.28279200   -3.67558200   -2.19468400
 C                0   -1.18148300   -3.93365100   -1.20095800
 Cl               0   -2.14089700   -5.37812100   -1.31736700
 N               -1    2.32822800    2.59904900   -2.41943300
 C                0    3.29579200    1.66858400   -2.22643500
 Cl               0    4.91025000    1.86718700   -2.81320300
 N               -1   -3.32748300    2.07508300    1.06572900
 C                0   -3.65986200    1.65508100   -0.17609800
 Cl               0   -5.20432000    1.97064400   -0.88752600
 Zn               0    0.12725300   -0.06280800   -0.04080200
 N                0   -0.22190800   -2.02229400   -0.68998100
 C                0   -1.15537300   -2.93127100   -0.27719900
 Cl               0   -2.07222700   -2.74979000    1.15370700
 N                0   -1.58344100    0.96182000    0.16301800
 C                0   -2.61246100    0.97710200   -0.73909400
 Cl               0   -2.48213300    0.24333700   -2.30022900
 N                0    1.46632700    0.83459900   -1.29542300
 C                0    2.78704500    0.59438900   -1.54002900
 Cl               0    3.57124300   -0.86058600   -1.04842300
 C                0    0.26506900   -2.50947300   -1.83447100
 H                0    1.02698800   -2.00118700   -2.40748800
 C                0   -2.08762600    1.64258100    1.23080200
 H                0   -1.50255300    1.82438800    2.12533700
 C                0    1.25659900    2.05086000   -1.85604700
 H                0    0.28215700    2.52130300   -1.83342100
 C                0    1.10247700   -0.42013500    5.12140400
 C                0   -0.38283000   -0.44710500    4.71824900
 O                0    1.78020400   -0.42466000    3.83696600
 C                0    1.57461000   -1.60015700    5.93790000
 H                0   -0.90046000    0.46105300    5.02371700
 H                0   -0.90643600   -1.34849400    5.04338300
 H                0    2.65303100   -1.54995500    6.10083800
 H                0    1.33864400   -2.54419800    5.43892200
 H                0    1.08204800   -1.59090000    6.91420600
 H                0    1.34394900    0.54133000    5.57590800
 N                0    2.60261900    4.74231600    1.16253600
 C                0    2.18696300    5.41493700    2.46945400
 C                0    3.28379400    5.74007400    3.47105800
 H                0    1.45771500    4.74610700    2.93613100
 H                0    1.68738200    6.34032900    2.17424600
 H                0    2.77836800    6.08851200    4.37500600
 H                0    3.87566200    4.87152100    3.75568500
 H                0    3.95323900    6.53687000    3.13976800
 C                0    3.90814700    5.32659800    0.67865600
 C                0    4.47875600    4.72824300   -0.59585600
 H                0    4.62383100    5.20491500    1.48862900
 H                0    3.72426000    6.39810000    0.56275000
 H                0    5.36255700    5.31240800   -0.86500400
 H                0    4.80299800    3.69662700   -0.45664500
 H                0    3.79456900    4.74821000   -1.44438100
 C                0    1.53141900    5.05413300    0.12438100
 C                0    0.11020500    4.67286300    0.50461400
 H                0    1.82389400    4.53493500   -0.78804100
 H                0    1.60468500    6.13061800   -0.05053600
 H                0   -0.53912200    4.99992300   -0.31172200
 H                0   -0.03050600    3.59844400    0.61645600
 H                0   -0.23998700    5.15122200    1.41913200
 C                0    2.67703100    3.22645400    1.29961400
 C                0    3.73352400    2.67783900    2.23873200
 H                0    2.81212800    2.84843300    0.28674400
 H                0    1.70530500    2.91515000    1.68256600
 H                0    3.73837300    1.59437500    2.09544900
 H                0    4.74410300    3.04249400    2.03732600
 H                0    3.45858500    2.85148500    3.27931600
 Br               0    0.48516900    2.75044200    4.09446400
 C                0    0.89691500   -0.34414800    2.86868400
 O                0   -0.34841200   -0.45824400    3.27881900
 O                0    1.21548300   -0.24687800    1.68856300

Zn 0
LanL2DZ
****
C H O Br Li Cl N 0
6-31G(d,p)
****

Zn 0
LanL2DZ



