%nprocshared=64
%mem=64GB
%chk=Zn_PO_TEABr_TS_QST3_3.chk
# opt=(calcall,tight,qst3,cartesian) freq cam-b3lyp/gen nosymm
scf=(qc,maxcycle=1024,vshift=100) pseudo=read

Zn_PO_TEABr_opt_freq3

0 1
 Li              -1   -0.65617400   -5.03839400   -3.45744000
 N               -1   -0.28279200   -3.67558200   -2.19468400
 C                0   -0.95363700   -4.05128200   -1.06711100
 Cl               0   -1.73158300   -5.60216500   -1.05332600
 N               -1    2.32822800    2.59904900   -2.41943300
 C                0    3.23877800    1.59574800   -2.36945400
 Cl               0    4.80135700    1.72125400   -3.10162200
 N               -1   -3.32748300    2.07508300    1.06572900
 C                0   -3.52558300    1.93876900   -0.26556000
 Cl               0   -4.91800800    2.56722000   -1.07136500
 Zn               0    0.12390500   -0.07736600   -0.04452200
 N                0   -0.16040400   -2.03586100   -0.68088100
 C                0   -0.88756600   -3.05749800   -0.13535500
 Cl               0   -1.55156300   -2.99623800    1.43830800
 N                0   -1.59506900    0.93976900    0.16591100
 C                0   -2.48262000    1.24975500   -0.82690700
 Cl               0   -2.22082900    0.77823700   -2.46837300
 N                0    1.46400100    0.85380100   -1.27281800
 C                0    2.72989500    0.53129100   -1.67163400
 Cl               0    3.46264400   -0.98422600   -1.29472700
 C                0    0.17240300   -2.45228600   -1.90606000
 H                0    0.75473400   -1.85089200   -2.58885800
 C                0   -2.17388300    1.46670300    1.27732400
 H                0   -1.71746600    1.38161900    2.25470500
 C                0    1.28833100    2.10740800   -1.75675500
 H                0    0.35979400    2.64407400   -1.61339400
 C                0    2.34799600    0.43952500    2.10670200
 C                0    1.17132300    1.07576100    2.65960500
 O                0    1.00790500   -0.11410300    1.81888100
 C                0    3.25060400   -0.42181200    2.92706400
 H                0    0.80808100    2.00053200    2.22571600
 H                0    0.90927000    0.90142200    3.69827200
 H                0    3.73415700   -1.18460800    2.31169200
 H                0    2.69755200   -0.90935900    3.73303700
 H                0    4.01275400    0.23202100    3.35896100
 H                0    2.79136600    0.91762800    1.23935300
 N                0    4.05547300    5.56782800   -0.17055800
 C                0    4.16620800    6.30630100    1.15984400
 C                0    5.49646400    6.97109400    1.47946200
 H                0    3.91267600    5.56891600    1.93081900
 H                0    3.38821500    7.07202800    1.13144700
 H                0    5.40872100    7.36248000    2.49596400
 H                0    6.33685300    6.27932900    1.47677600
 H                0    5.72705300    7.81429400    0.82467800
 C                0    4.77290700    6.33785100   -1.25051500
 C                0    4.66359000    5.76716700   -2.65565200
 H                0    5.81872100    6.39485800   -0.95514100
 H                0    4.36527600    7.35159300   -1.21333700
 H                0    5.20524500    6.43919600   -3.32622500
 H                0    5.11608800    4.77863000   -2.74333300
 H                0    3.63574600    5.69901500   -3.01274100
 C                0    2.57844900    5.48295600   -0.54777200
 C                0    1.63325900    5.10288600    0.58268700
 H                0    2.51567700    4.74948200   -1.35255000
 H                0    2.31811400    6.46643800   -0.94863900
 H                0    0.68254800    4.81040700    0.12985600
 H                0    2.00051700    4.27481500    1.19481000
 H                0    1.43258000    5.93633400    1.25772000
 C                0    4.56920100    4.13726400   -0.07184600
 C                0    6.02112800    3.95657800    0.32574200
 H                0    4.36182000    3.68895200   -1.04021200
 H                0    3.96060500    3.65332800    0.69542900
 H                0    6.25899300    2.90328600    0.15843300
 H                0    6.72871100    4.54421200   -0.26528400
 H                0    6.16003700    4.14253800    1.39137900
 Br               0    3.67486900    3.33184800    3.21150100

Zn_PO_TEABr_ring_opened_opt_freq3_re

0 1
 Li              -1   -0.65617400   -5.03839400   -3.45744000
 N               -1   -0.28279200   -3.67558200   -2.19468400
 C                0   -1.20525200   -3.92592900   -1.22180500
 Cl               0   -2.15661900   -5.37785200   -1.35172000
 N               -1    2.32822800    2.59904900   -2.41943300
 C                0    3.34343100    1.77528000   -2.05753200
 Cl               0    4.99598500    2.11631100   -2.44974200
 N               -1   -3.32748300    2.07508300    1.06572900
 C                0   -3.49911300    2.10243100   -0.27504400
 Cl               0   -4.84467800    2.89016200   -1.02866700
 Zn               0    0.14309600   -0.08106100    0.07775100
 N                0   -0.27964400   -1.99763200   -0.71313800
 C                0   -1.21328300   -2.90965700   -0.31158500
 Cl               0   -2.17456700   -2.72257900    1.08894600
 N                0   -1.62703700    0.96553900    0.06280300
 C                0   -2.47614500    1.42749600   -0.89663600
 Cl               0   -2.23664800    1.11632700   -2.58144800
 N                0    1.49978700    0.83847400   -1.25293600
 C                0    2.85349500    0.70577100   -1.34746200
 Cl               0    3.70270200   -0.63972400   -0.68428400
 C                0    0.24257300   -2.49603800   -1.83449100
 H                0    1.01530500   -1.98699900   -2.39277000
 C                0   -2.20372400    1.38606900    1.21693500
 H                0   -1.76726700    1.14590800    2.17692600
 C                0    1.25221300    1.98811800   -1.92167300
 H                0    0.24462000    2.36047000   -2.04698600
 C                0    1.77398200    0.57815800    2.47418500
 C                0    1.05638600    1.53266000    3.43557800
 O                0    0.76843000   -0.15146000    1.88206500
 C                0    2.76496200   -0.32615300    3.20110100
 H                0    0.28604800    2.09917300    2.91877800
 H                0    0.62065300    0.99577600    4.27659700
 H                0    3.24159000   -0.98973400    2.47661900
 H                0    2.22630200   -0.94496000    3.92531800
 H                0    3.54009600    0.24205700    3.72391800
 H                0    2.34808800    1.19485800    1.75263300
 N                0    2.24355500    5.35229400    0.48554200
 C                0    1.92037000    5.99523100    1.82892700
 C                0    2.96887000    6.90889900    2.44631300
 H                0    1.69722700    5.17198400    2.50839800
 H                0    1.00240100    6.56525500    1.67354000
 H                0    2.60580700    7.17529500    3.44208700
 H                0    3.93964900    6.43169200    2.57327600
 H                0    3.10102000    7.83903700    1.89107300
 C                0    3.02345000    6.31317500   -0.38667400
 C                0    3.49820100    5.76257900   -1.72265200
 H                0    3.88156200    6.64085000    0.19581100
 H                0    2.36993000    7.17841900   -0.52460500
 H                0    3.91703000    6.59978200   -2.28690100
 H                0    4.28635000    5.01751300   -1.60563100
 H                0    2.71451300    5.30469200   -2.32543600
 C                0    0.91972600    5.05230700   -0.21842000
 C                0   -0.06908900    4.20041300    0.55713200
 H                0    1.18262100    4.55480700   -1.15036600
 H                0    0.48950100    6.03013700   -0.44760800
 H                0   -0.97224300    4.10210800   -0.05066600
 H                0    0.29160900    3.18660900    0.72594600
 H                0   -0.37061000    4.63911100    1.50933900
 C                0    2.98565100    4.03559200    0.65593300
 C                0    4.37641900    4.11104000    1.25611600
 H                0    3.00894100    3.58310100   -0.33393800
 H                0    2.35693800    3.41874400    1.29420200
 H                0    4.80583700    3.11002800    1.17237300
 H                0    5.04473600    4.79250100    0.72541400
 H                0    4.35816100    4.35990600    2.31730200
 Br               0    2.23752900    2.91683100    4.25460600

Zn_PO_TEABr_TS_QST3_3

0 1
 Li              -1   -0.65617400   -5.03839400   -3.45744000
 N               -1   -0.28279200   -3.67558200   -2.19468400
 C                0   -0.95363700   -4.05128200   -1.06711100
 Cl               0   -1.73158300   -5.60216500   -1.05332600
 N               -1    2.32822800    2.59904900   -2.41943300
 C                0    3.23877800    1.59574800   -2.36945400
 Cl               0    4.80135700    1.72125400   -3.10162200
 N               -1   -3.32748300    2.07508300    1.06572900
 C                0   -3.52558300    1.93876900   -0.26556000
 Cl               0   -4.91800800    2.56722000   -1.07136500
 Zn               0    0.12390500   -0.07736600   -0.04452200
 N                0   -0.16040400   -2.03586100   -0.68088100
 C                0   -0.88756600   -3.05749800   -0.13535500
 Cl               0   -1.55156300   -2.99623800    1.43830800
 N                0   -1.59506900    0.93976900    0.16591100
 C                0   -2.48262000    1.24975500   -0.82690700
 Cl               0   -2.22082900    0.77823700   -2.46837300
 N                0    1.46400100    0.85380100   -1.27281800
 C                0    2.72989500    0.53129100   -1.67163400
 Cl               0    3.46264400   -0.98422600   -1.29472700
 C                0    0.17240300   -2.45228600   -1.90606000
 H                0    0.75473400   -1.85089200   -2.58885800
 C                0   -2.17388300    1.46670300    1.27732400
 H                0   -1.71746600    1.38161900    2.25470500
 C                0    1.28833100    2.10740800   -1.75675500
 H                0    0.35979400    2.64407400   -1.61339400
 C                0    2.35844002    0.61631934    2.31472714
 C                0    1.20872191    1.46513370    3.13468942
 O                0    1.00790500   -0.11410300    1.81888100
 C                0    3.31607034   -0.40363832    3.07988640
 H                0    0.40309760    2.39515209    2.87573807
 H                0    0.56361334    1.19233388    3.97749493
 H                0    3.79928371   -1.11588992    2.40641299
 H                0    2.88038714   -0.94589415    3.92208580
 H                0    4.06088884    0.30325248    3.45466105
 H                0    2.80181002    1.09442234    1.44737814
 N                0    4.05547300    5.56782800   -0.17055800
 C                0    4.16620800    6.30630100    1.15984400
 C                0    5.49646400    6.97109400    1.47946200
 H                0    3.91267600    5.56891600    1.93081900
 H                0    3.38821500    7.07202800    1.13144700
 H                0    5.40872100    7.36248000    2.49596400
 H                0    6.33685300    6.27932900    1.47677600
 H                0    5.72705300    7.81429400    0.82467800
 C                0    4.77290700    6.33785100   -1.25051500
 C                0    4.66359000    5.76716700   -2.65565200
 H                0    5.81872100    6.39485800   -0.95514100
 H                0    4.36527600    7.35159300   -1.21333700
 H                0    5.20524500    6.43919600   -3.32622500
 H                0    5.11608800    4.77863000   -2.74333300
 H                0    3.63574600    5.69901500   -3.01274100
 C                0    2.57844900    5.48295600   -0.54777200
 C                0    1.63325900    5.10288600    0.58268700
 H                0    2.51567700    4.74948200   -1.35255000
 H                0    2.31811400    6.46643800   -0.94863900
 H                0    0.68254800    4.81040700    0.12985600
 H                0    2.00051700    4.27481500    1.19481000
 H                0    1.43258000    5.93633400    1.25772000
 C                0    4.56920100    4.13726400   -0.07184600
 C                0    6.02112800    3.95657800    0.32574200
 H                0    4.36182000    3.68895200   -1.04021200
 H                0    3.96060500    3.65332800    0.69542900
 H                0    6.25899300    2.90328600    0.15843300
 H                0    6.72871100    4.54421200   -0.26528400
 H                0    6.16003700    4.14253800    1.39137900
 Br               0    2.55631267    3.27099904    4.01660434

Zn 0
LanL2DZ
****
C H O Br Li Cl N 0
6-31G(d,p)
****

Zn 0
LanL2DZ







