%nprocshared=64
%mem=64GB
%chk=Zn_PC_opt_freq3.chk
# opt=(calcall,tight,cartesian) freq cam-b3lyp/gen nosymm
scf=(qc,maxcycle=1024,vshift=100) pseudo=read

Zn_PC_opt_freq3

0 1
 Li              -1   -0.65617400   -5.03839400   -3.45744000
 N               -1   -0.28279200   -3.67558200   -2.19468400
 C                0   -0.79282300   -4.12056200   -1.01086800
 Cl               0   -1.44388600   -5.72688700   -0.94781600
 N               -1    2.32822800    2.59904900   -2.41943300
 C                0    3.25756000    1.64643000   -2.16755300
 Cl               0    4.89277000    1.77573400   -2.70863800
 N               -1   -3.32748300    2.07508300    1.06572900
 C                0   -3.96808700    1.04005400    0.47273000
 Cl               0   -5.66701200    0.78367400    0.63887300
 Zn               0    0.00151400   -0.04825000   -0.16307000
 N                0   -0.10974600   -2.05802700   -0.66212600
 C                0   -0.69317000   -3.14188100   -0.06712000
 Cl               0   -1.18414800   -3.16952900    1.56922000
 N                0   -1.83451700    0.83583800   -0.09699300
 C                0   -3.07340100    0.27946200   -0.23628800
 Cl               0   -3.37301900   -1.12032900   -1.19728500
 N                0    1.38175300    0.91484200   -1.24422300
 C                0    2.70093000    0.61862000   -1.45270300
 Cl               0    3.41825000   -0.83539200   -0.86148300
 C                0    0.11658400   -2.42883600   -1.92605100
 H                0    0.58262300   -1.77621100   -2.65095800
 C                0   -2.06638200    1.91684800    0.69110200
 H                0   -1.27159800    2.59524900    0.97838000
 C                0    1.23195700    2.12407000   -1.85392000
 H                0    0.27859200    2.63686000   -1.86651600
 C                0   -1.21580900    1.53660300    4.58686400
 C                0   -2.29624300    0.67197700    3.92413900
 O                0   -0.14128300    1.46329000    3.61332800
 C                0   -0.71689900    1.03068400    5.92266200
 H                0   -3.01818600    1.25364300    3.34706300
 H                0   -2.79470200   -0.00745300    4.61495200
 H                0    0.15293500    1.60363400    6.24881800
 H                0   -0.43706500   -0.02451100    5.85741800
 H                0   -1.50278300    1.13488800    6.67547500
 H                0   -1.51205300    2.58482900    4.63895000
 C                0   -0.37481000    0.47193300    2.76794600
 O                0   -1.53611700   -0.12083000    2.98846200
 O                0    0.40742300    0.14652200    1.89079000

Zn 0
LanL2DZ
****
C H O Li Cl N 0
6-31G(d,p)
****

Zn 0
LanL2DZ




