%nprocshared=64
%mem=64GB
%chk=Zn_PC_TEABr_TS3.chk
# opt=(calcall,tight,qst3,cartesian) freq cam-b3lyp/gen nosymm
scf=(qc,maxcycle=1024,vshift=100) pseudo=read

Zn_PO_TEABr_CO_bind_opt_freq3_re

0 1
 Li              -1   -0.65617400   -5.03839400   -3.45744000
 N               -1   -0.28279200   -3.67558200   -2.19468400
 C                0   -0.88055300   -4.09959900   -1.04384800
 Cl               0   -1.59514100   -5.68330000   -1.02980800
 N               -1    2.32822800    2.59904900   -2.41943300
 C                0    3.25584900    1.61855100   -2.30672800
 Cl               0    4.89360700    1.82281200   -2.83467100
 N               -1   -3.32748300    2.07508300    1.06572900
 C                0   -3.49358600    2.08111000   -0.27673800
 Cl               0   -4.80831000    2.89646100   -1.05079300
 Zn               0    0.11017900   -0.07883000   -0.03274300
 N                0   -0.14701100   -2.06368500   -0.64985100
 C                0   -0.80682100   -3.12458100   -0.09248300
 Cl               0   -1.38943600   -3.12501900    1.51166300
 N                0   -1.66309700    0.89123000    0.09704000
 C                0   -2.49223700    1.36335600   -0.87943300
 Cl               0   -2.23880400    1.01762900   -2.55408900
 N                0    1.39553400    0.78047800   -1.43672000
 C                0    2.70499500    0.51298700   -1.70529900
 Cl               0    3.45479000   -0.98757100   -1.29609800
 C                0    0.13916600   -2.44072600   -1.89892900
 H                0    0.66075500   -1.79968400   -2.59473500
 C                0   -2.23115400    1.35334200    1.24219700
 H                0   -1.81848100    1.10879900    2.21205200
 C                0    1.23658500    2.04518500   -1.89662700
 H                0    0.28004500    2.54826500   -1.84556600
 C                0    1.55354600    0.69245100    5.06862500
 C                0    0.17896200    1.14697500    5.55587800
 O                0    1.68981400    0.90017400    3.65133000
 C                0    1.91130600   -0.72818900    5.47144900
 H                0   -0.12538500    2.06516900    5.05645000
 H                0   -0.58195000    0.38599000    5.42301800
 H                0    2.91424600   -0.97573300    5.11569400
 H                0    1.19766200   -1.43343900    5.04492100
 H                0    1.89688800   -0.81801000    6.55989800
 H                0    2.29551800    1.38139400    5.48265000
 N                0    3.12546000    3.95582100    1.46049200
 C                0    2.84603100    4.03397700    2.95340500
 C                0    4.04157500    4.17336200    3.88571200
 H                0    2.27590500    3.13490000    3.19281000
 H                0    2.19668700    4.90102700    3.08883100
 H                0    3.65252200    4.12639000    4.90619300
 H                0    4.77210000    3.37342600    3.77901800
 H                0    4.55102500    5.13280500    3.78094700
 C                0    4.25958800    4.88618600    1.09771600
 C                0    4.57797100    5.00277800   -0.38446200
 H                0    5.13704600    4.53446100    1.63726100
 H                0    3.98663400    5.86140600    1.50958200
 H                0    5.39879800    5.71764100   -0.48367100
 H                0    4.90982200    4.06143900   -0.82417000
 H                0    3.74277500    5.37616400   -0.97705000
 C                0    1.87330500    4.41681100    0.71637400
 C                0    0.56135900    3.82555600    1.20543500
 H                0    2.03307200    4.15274800   -0.32919500
 H                0    1.86092900    5.50634600    0.80654800
 H                0   -0.21523000    4.10969800    0.49176200
 H                0    0.57502400    2.73665700    1.24630900
 H                0    0.25719500    4.20944100    2.18041500
 C                0    3.41227900    2.52879900    1.01291200
 C                0    4.56948600    1.81514100    1.68407300
 H                0    3.56236700    2.58701400   -0.06220200
 H                0    2.50543300    1.95184500    1.19279800
 H                0    4.70484000    0.87834000    1.13811700
 H                0    5.51838400    2.35611900    1.63920500
 H                0    4.33959000    1.54828200    2.71634300
 Br               0    0.24746800    1.57055600    7.47000000
 C                0    0.83834400    0.21814600    2.80047400
 O                0   -0.10367900   -0.42668500    3.23632200
 O                0    1.18211100    0.40451400    1.58188900

Zn_PC_TEABr_opt_freq3

0 1
 Li              -1   -0.65617400   -5.03839400   -3.45744000
 N               -1   -0.28279200   -3.67558200   -2.19468400
 C                0   -1.18148300   -3.93365100   -1.20095800
 Cl               0   -2.14089700   -5.37812100   -1.31736700
 N               -1    2.32822800    2.59904900   -2.41943300
 C                0    3.29579200    1.66858400   -2.22643500
 Cl               0    4.91025000    1.86718700   -2.81320300
 N               -1   -3.32748300    2.07508300    1.06572900
 C                0   -3.65986200    1.65508100   -0.17609800
 Cl               0   -5.20432000    1.97064400   -0.88752600
 Zn               0    0.12725300   -0.06280800   -0.04080200
 N                0   -0.22190800   -2.02229400   -0.68998100
 C                0   -1.15537300   -2.93127100   -0.27719900
 Cl               0   -2.07222700   -2.74979000    1.15370700
 N                0   -1.58344100    0.96182000    0.16301800
 C                0   -2.61246100    0.97710200   -0.73909400
 Cl               0   -2.48213300    0.24333700   -2.30022900
 N                0    1.46632700    0.83459900   -1.29542300
 C                0    2.78704500    0.59438900   -1.54002900
 Cl               0    3.57124300   -0.86058600   -1.04842300
 C                0    0.26506900   -2.50947300   -1.83447100
 H                0    1.02698800   -2.00118700   -2.40748800
 C                0   -2.08762600    1.64258100    1.23080200
 H                0   -1.50255300    1.82438800    2.12533700
 C                0    1.25659900    2.05086000   -1.85604700
 H                0    0.28215700    2.52130300   -1.83342100
 C                0    1.10247700   -0.42013500    5.12140400
 C                0   -0.38283000   -0.44710500    4.71824900
 O                0    1.78020400   -0.42466000    3.83696600
 C                0    1.57461000   -1.60015700    5.93790000
 H                0   -0.90046000    0.46105300    5.02371700
 H                0   -0.90643600   -1.34849400    5.04338300
 H                0    2.65303100   -1.54995500    6.10083800
 H                0    1.33864400   -2.54419800    5.43892200
 H                0    1.08204800   -1.59090000    6.91420600
 H                0    1.34394900    0.54133000    5.57590800
 N                0    2.60261900    4.74231600    1.16253600
 C                0    2.18696300    5.41493700    2.46945400
 C                0    3.28379400    5.74007400    3.47105800
 H                0    1.45771500    4.74610700    2.93613100
 H                0    1.68738200    6.34032900    2.17424600
 H                0    2.77836800    6.08851200    4.37500600
 H                0    3.87566200    4.87152100    3.75568500
 H                0    3.95323900    6.53687000    3.13976800
 C                0    3.90814700    5.32659800    0.67865600
 C                0    4.47875600    4.72824300   -0.59585600
 H                0    4.62383100    5.20491500    1.48862900
 H                0    3.72426000    6.39810000    0.56275000
 H                0    5.36255700    5.31240800   -0.86500400
 H                0    4.80299800    3.69662700   -0.45664500
 H                0    3.79456900    4.74821000   -1.44438100
 C                0    1.53141900    5.05413300    0.12438100
 C                0    0.11020500    4.67286300    0.50461400
 H                0    1.82389400    4.53493500   -0.78804100
 H                0    1.60468500    6.13061800   -0.05053600
 H                0   -0.53912200    4.99992300   -0.31172200
 H                0   -0.03050600    3.59844400    0.61645600
 H                0   -0.23998700    5.15122200    1.41913200
 C                0    2.67703100    3.22645400    1.29961400
 C                0    3.73352400    2.67783900    2.23873200
 H                0    2.81212800    2.84843300    0.28674400
 H                0    1.70530500    2.91515000    1.68256600
 H                0    3.73837300    1.59437500    2.09544900
 H                0    4.74410300    3.04249400    2.03732600
 H                0    3.45858500    2.85148500    3.27931600
 Br               0    0.48516900    2.75044200    4.09446400
 C                0    0.89691500   -0.34414800    2.86868400
 O                0   -0.34841200   -0.45824400    3.27881900
 O                0    1.21548300   -0.24687800    1.68856300

Zn_PC_TEABr_TS3

0 1
 Li              -1   -0.65617400   -5.03839400   -3.45744000
 N               -1   -0.28279200   -3.67558200   -2.19468400
 C                0   -0.88055300   -4.09959900   -1.04384800
 Cl               0   -1.59514100   -5.68330000   -1.02980800
 N               -1    2.32822800    2.59904900   -2.41943300
 C                0    3.25584900    1.61855100   -2.30672800
 Cl               0    4.89360700    1.82281200   -2.83467100
 N               -1   -3.32748300    2.07508300    1.06572900
 C                0   -3.49358600    2.08111000   -0.27673800
 Cl               0   -4.80831000    2.89646100   -1.05079300
 Zn               0    0.11017900   -0.07883000   -0.03274300
 N                0   -0.14701100   -2.06368500   -0.64985100
 C                0   -0.80682100   -3.12458100   -0.09248300
 Cl               0   -1.38943600   -3.12501900    1.51166300
 N                0   -1.66309700    0.89123000    0.09704000
 C                0   -2.49223700    1.36335600   -0.87943300
 Cl               0   -2.23880400    1.01762900   -2.55408900
 N                0    1.39553400    0.78047800   -1.43672000
 C                0    2.70499500    0.51298700   -1.70529900
 Cl               0    3.45479000   -0.98757100   -1.29609800
 C                0    0.13916600   -2.44072600   -1.89892900
 H                0    0.66075500   -1.79968400   -2.59473500
 C                0   -2.23115400    1.35334200    1.24219700
 H                0   -1.81848100    1.10879900    2.21205200
 C                0    1.23658500    2.04518500   -1.89662700
 H                0    0.28004500    2.54826500   -1.84556600
 C                0    1.34522605    0.25316651    5.49346775
 C                0   -0.29258862    0.65120757    5.44339797
 O                0    1.70626828    0.14921530    3.89706911
 C                0    1.78942849   -1.12655325    5.94902780
 H                0   -0.79080742    1.61675088    5.51151385
 H                0   -1.00117511   -0.14388713    5.64703155
 H                0    2.80981723   -1.32096245    5.61029459
 H                0    1.12703497   -1.89081749    5.54193266
 H                0    1.76961734   -1.17930199    7.03981743
 H                0    2.03706462    1.00256447    5.88887096
 N                0    3.12546000    3.95582100    1.46049200
 C                0    2.84603100    4.03397700    2.95340500
 C                0    4.04157500    4.17336200    3.88571200
 H                0    2.27590500    3.13490000    3.19281000
 H                0    2.19668700    4.90102700    3.08883100
 H                0    3.65252200    4.12639000    4.90619300
 H                0    4.77210000    3.37342600    3.77901800
 H                0    4.55102500    5.13280500    3.78094700
 C                0    4.25958800    4.88618600    1.09771600
 C                0    4.57797100    5.00277800   -0.38446200
 H                0    5.13704600    4.53446100    1.63726100
 H                0    3.98663400    5.86140600    1.50958200
 H                0    5.39879800    5.71764100   -0.48367100
 H                0    4.90982200    4.06143900   -0.82417000
 H                0    3.74277500    5.37616400   -0.97705000
 C                0    1.87330500    4.41681100    0.71637400
 C                0    0.56135900    3.82555600    1.20543500
 H                0    2.03307200    4.15274800   -0.32919500
 H                0    1.86092900    5.50634600    0.80654800
 H                0   -0.21523000    4.10969800    0.49176200
 H                0    0.57502400    2.73665700    1.24630900
 H                0    0.25719500    4.20944100    2.18041500
 C                0    3.41227900    2.52879900    1.01291200
 C                0    4.56948600    1.81514100    1.68407300
 H                0    3.56236700    2.58701400   -0.06220200
 H                0    2.50543300    1.95184500    1.19279800
 H                0    4.70484000    0.87834000    1.13811700
 H                0    5.51838400    2.35611900    1.63920500
 H                0    4.33959000    1.54828200    2.71634300
 Br               0   -0.03924974    1.12781907    7.85179761
 C                0    0.61169008    0.09389777    3.05270082
 O                0   -0.52593511    0.06410794    3.49778432
 O                0    0.99016475    0.11003845    1.83026285

Zn 0
LanL2DZ
****
C H O Br Li Cl N 0
6-31G(d,p)
****

Zn 0
LanL2DZ









