%nprocshared=64
%mem=64GB
%chk=2_test_opt_freq_from_IRC_TBAB.chk
# opt=(calcall,tight,cartesian) freq cam-b3lyp/gen nosymm
scf=(qc,maxcycle=1024,vshift=100) pseudo=read

2_test_opt_freq_from_IRC_TBAB

0 1
 Li              -1   -1.73232200   -6.83326200   -3.63091300
 N               -1   -1.35894000   -5.47045000   -2.36815700
 C                0   -2.06190000   -5.83532000   -1.25700900
 Cl               0   -2.86153400   -7.37543900   -1.26108300
 N               -1    1.25208000    0.80418100   -2.59290600
 C                0    2.16860400   -0.19180300   -2.52811300
 Cl               0    3.72884300   -0.06405800   -3.25961400
 N               -1   -4.40363100    0.28021500    0.89225600
 C                0   -4.57936500    0.20030100   -0.44766000
 Cl               0   -5.93715400    0.89868500   -1.25320300
 Zn               0   -0.96076500   -1.87960700   -0.22608100
 N                0   -1.24914900   -3.83204300   -0.85485400
 C                0   -2.00420400   -4.84154800   -0.32491800
 Cl               0   -2.70625000   -4.76884000    1.23134400
 N                0   -2.68656500   -0.86905600   -0.01676500
 C                0   -3.54446500   -0.49634000   -1.01426900
 Cl               0   -3.26922600   -0.92197000   -2.66539800
 N                0    0.38641600   -0.94198500   -1.44328900
 C                0    1.65937400   -1.25639200   -1.82801200
 Cl               0    2.39687600   -2.76625600   -1.43346000
 C                0   -0.89279500   -4.25440200   -2.07108700
 H                0   -0.28545600   -3.66269300   -2.74049400
 C                0   -3.27245000   -0.37031200    1.10288200
 H                0   -2.84069900   -0.50445300    2.08525300
 C                0    0.20704900    0.30641000   -1.94347100
 H                0   -0.73059000    0.83336200   -1.82583700
 C                0    1.13767200   -1.34689500    2.04791300
 C                0   -0.08404900   -0.71432800    2.49574100
 O                0   -0.15713900   -1.93621700    1.67200400
 C                0    1.98546800   -2.15904700    2.97247300
 H                0   -0.43903200    0.18498900    2.00929900
 H                0   -0.41564400   -0.86432000    3.51688500
 H                0    2.57631800   -2.89930300    2.42750800
 H                0    1.36520400   -2.66951400    3.71234500
 H                0    2.65726100   -1.47306000    3.49561300
 H                0    1.64416400   -0.89288900    1.20061900
 N                0    2.13803200    3.87097400    0.23899400
 C                0    0.85439500    3.04730700    0.36805000
 H                0    0.95333000    2.50754000    1.31639600
 H                0    0.88753400    2.33553500   -0.45736100
 C                0    1.91723200    4.99015100   -0.74784200
 H                0    1.12211700    5.61370900   -0.34279000
 H                0    1.53459600    4.51324300   -1.65400000
 C                0    3.22851400    2.95949000   -0.30621700
 H                0    4.15439400    3.53219800   -0.23472900
 H                0    2.99531500    2.80420400   -1.36276200
 C                0    2.60722400    4.37506800    1.59342500
 H                0    3.55071000    4.89326600    1.41171600
 H                0    2.79294800    3.48412300    2.19636000
 Br               0    1.53555000    1.75049400    3.72164800
 C                0    1.65245200    5.25167400    2.38500200
 C                0    2.32516400    5.66873800    3.69545100
 H                0    0.76352400    4.67282300    2.64430000
 H                0    1.34210900    6.14307700    1.82567700
 C                0    1.41918300    6.54579400    4.55328600
 H                0    2.58251000    4.75722700    4.24498700
 H                0    3.26247400    6.19933600    3.48254700
 H                0    1.91348900    6.82919000    5.48605200
 H                0    1.13904300    7.46687200    4.03094100
 H                0    0.49942500    6.01447200    4.81418700
 C                0    3.39568400    1.61302600    0.39527900
 C                0    4.82656500    1.09770900    0.22065400
 H                0    2.70049900    0.89352100   -0.04636400
 H                0    3.15239800    1.66320300    1.46157900
 C                0    5.00429900   -0.30448600    0.79376400
 H                0    5.09581000    1.09486500   -0.84183000
 H                0    5.51783000    1.78880200    0.71965600
 H                0    6.03985000   -0.64243500    0.70027400
 H                0    4.73536700   -0.32946500    1.85426700
 H                0    4.37264800   -1.02580100    0.26610400
 C                0   -0.47414600    3.79990600    0.31912000
 C                0   -1.60104400    2.87815900    0.79666100
 H                0   -0.69429900    4.13846500   -0.69933500
 H                0   -0.46589500    4.68754400    0.95503100
 C                0   -2.97377400    3.53832100    0.71917700
 H                0   -1.60858000    1.96031500    0.19663300
 H                0   -1.38867400    2.57329300    1.82795500
 H                0   -3.75015500    2.84695800    1.05311400
 H                0   -3.01549800    4.43516900    1.34621100
 H                0   -3.21202600    3.83666600   -0.30702000
 C                0    3.12225600    5.85970200   -1.08256800
 C                0    2.72027300    6.95935900   -2.06936800
 H                0    3.92615900    5.26532200   -1.52617300
 H                0    3.52678600    6.32676600   -0.17890800
 C                0    3.89213000    7.86175600   -2.44291700
 H                0    2.30539700    6.50113800   -2.97486200
 H                0    1.91508100    7.56304800   -1.63387500
 H                0    3.58322200    8.63844900   -3.14668300
 H                0    4.30676900    8.35798400   -1.56009300
 H                0    4.69820200    7.28923400   -2.91176000

Zn 0
LanL2DZ
****
C H O Br Li Cl N 0
6-31G(d,p)
****

Zn 0
LanL2DZ



